\ Model AlloyCombination
\ LP format - for model browsing. Use MPS format to capture full model detail.
Minimize
  5 X[0,0] + 5 X[0,1] + 5 X[0,2] + 5 X[0,3] + 5 X[0,4] + 5 X[0,5] + 5 X[0,6]
   + 5 X[0,7] + 5 X[0,8] + 5 X[0,9] + 5 X[0,10] + 5 X[0,11] + 10 X[1,0]
   + 10 X[1,1] + 10 X[1,2] + 10 X[1,3] + 10 X[1,4] + 10 X[1,5] + 10 X[1,6]
   + 10 X[1,7] + 10 X[1,8] + 10 X[1,9] + 10 X[1,10] + 10 X[1,11] + 9 X[2,0]
   + 9 X[2,1] + 9 X[2,2] + 9 X[2,3] + 9 X[2,4] + 9 X[2,5] + 9 X[2,6]
   + 9 X[2,7] + 9 X[2,8] + 9 X[2,9] + 9 X[2,10] + 9 X[2,11] + 7 X[3,0]
   + 7 X[3,1] + 7 X[3,2] + 7 X[3,3] + 7 X[3,4] + 7 X[3,5] + 7 X[3,6]
   + 7 X[3,7] + 7 X[3,8] + 7 X[3,9] + 7 X[3,10] + 7 X[3,11] + 8.5 X[4,0]
   + 8.5 X[4,1] + 8.5 X[4,2] + 8.5 X[4,3] + 8.5 X[4,4] + 8.5 X[4,5]
   + 8.5 X[4,6] + 8.5 X[4,7] + 8.5 X[4,8] + 8.5 X[4,9] + 8.5 X[4,10]
   + 8.5 X[4,11] + 20 Z[0,0] + 20 Z[0,1] + 20 Z[0,2] + 20 Z[0,3]
   + 20 Z[0,4] + 20 Z[0,5] + 20 Z[0,6] + 20 Z[0,7] + 20 Z[0,8] + 20 Z[0,9]
   + 20 Z[0,10] + 20 Z[0,11] + 10 Z[1,0] + 10 Z[1,1] + 10 Z[1,2]
   + 10 Z[1,3] + 10 Z[1,4] + 10 Z[1,5] + 10 Z[1,6] + 10 Z[1,7] + 10 Z[1,8]
   + 10 Z[1,9] + 10 Z[1,10] + 10 Z[1,11] + 5 Z[2,0] + 5 Z[2,1] + 5 Z[2,2]
   + 5 Z[2,3] + 5 Z[2,4] + 5 Z[2,5] + 5 Z[2,6] + 5 Z[2,7] + 5 Z[2,8]
   + 5 Z[2,9] + 5 Z[2,10] + 5 Z[2,11]
Subject To
 con1[0]-: X[0,0] <= 90
 con1[0]-: X[0,1] <= 90
 con1[0]-: X[0,2] <= 90
 con1[0]-: X[0,3] <= 90
 con1[0]-: X[0,4] <= 90
 con1[0]-: X[0,5] <= 90
 con1[0]-: X[0,6] <= 90
 con1[0]-: X[0,7] <= 90
 con1[0]-: X[0,8] <= 90
 con1[0]-: X[0,9] <= 90
 con1[0]-: X[0,10] <= 90
 con1[0]-: X[0,11] <= 90
 con1[1]-: X[1,0] <= 30
 con1[1]-: X[1,1] <= 30
 con1[1]-: X[1,2] <= 30
 con1[1]-: X[1,3] <= 30
 con1[1]-: X[1,4] <= 30
 con1[1]-: X[1,5] <= 30
 con1[1]-: X[1,6] <= 30
 con1[1]-: X[1,7] <= 30
 con1[1]-: X[1,8] <= 30
 con1[1]-: X[1,9] <= 30
 con1[1]-: X[1,10] <= 30
 con1[1]-: X[1,11] <= 30
 con1[2]-: X[2,0] <= 50
 con1[2]-: X[2,1] <= 50
 con1[2]-: X[2,2] <= 50
 con1[2]-: X[2,3] <= 50
 con1[2]-: X[2,4] <= 50
 con1[2]-: X[2,5] <= 50
 con1[2]-: X[2,6] <= 50
 con1[2]-: X[2,7] <= 50
 con1[2]-: X[2,8] <= 50
 con1[2]-: X[2,9] <= 50
 con1[2]-: X[2,10] <= 50
 con1[2]-: X[2,11] <= 50
 con1[3]-: X[3,0] <= 70
 con1[3]-: X[3,1] <= 70
 con1[3]-: X[3,2] <= 70
 con1[3]-: X[3,3] <= 70
 con1[3]-: X[3,4] <= 70
 con1[3]-: X[3,5] <= 70
 con1[3]-: X[3,6] <= 70
 con1[3]-: X[3,7] <= 70
 con1[3]-: X[3,8] <= 70
 con1[3]-: X[3,9] <= 70
 con1[3]-: X[3,10] <= 70
 con1[3]-: X[3,11] <= 70
 con1[4]-: X[4,0] <= 20
 con1[4]-: X[4,1] <= 20
 con1[4]-: X[4,2] <= 20
 con1[4]-: X[4,3] <= 20
 con1[4]-: X[4,4] <= 20
 con1[4]-: X[4,5] <= 20
 con1[4]-: X[4,6] <= 20
 con1[4]-: X[4,7] <= 20
 con1[4]-: X[4,8] <= 20
 con1[4]-: X[4,9] <= 20
 con1[4]-: X[4,10] <= 20
 con1[4]-: X[4,11] <= 20
 con2[0]-: Y[0,0] + Y[1,0] + Y[2,0] <= 100
 con2[1]-: Y[0,1] + Y[1,1] + Y[2,1] <= 100
 con2[2]-: Y[0,2] + Y[1,2] + Y[2,2] <= 100
 con2[3]-: Y[0,3] + Y[1,3] + Y[2,3] <= 100
 con2[4]-: Y[0,4] + Y[1,4] + Y[2,4] <= 100
 con2[5]-: Y[0,5] + Y[1,5] + Y[2,5] <= 100
 con2[6]-: Y[0,6] + Y[1,6] + Y[2,6] <= 100
 con2[7]-: Y[0,7] + Y[1,7] + Y[2,7] <= 100
 con2[8]-: Y[0,8] + Y[1,8] + Y[2,8] <= 100
 con2[9]-: Y[0,9] + Y[1,9] + Y[2,9] <= 100
 con2[10]-: Y[0,10] + Y[1,10] + Y[2,10] <= 100
 con2[11]-: Y[0,11] + Y[1,11] + Y[2,11] <= 100
 con3[0,0]-: Y[0,0] - Z[0,0] = 25
 con3[0,1]-: Y[0,1] + Z[0,0] - Z[0,1] = 25
 con3[0,2]-: Y[0,2] + Z[0,1] - Z[0,2] = 0
 con3[0,3]-: Y[0,3] + Z[0,2] - Z[0,3] = 0
 con3[0,4]-: Y[0,4] + Z[0,3] - Z[0,4] = 0
 con3[0,5]-: Y[0,5] + Z[0,4] - Z[0,5] = 50
 con3[0,6]-: Y[0,6] + Z[0,5] - Z[0,6] = 12
 con3[0,7]-: Y[0,7] + Z[0,6] - Z[0,7] = 0
 con3[0,8]-: Y[0,8] + Z[0,7] - Z[0,8] = 10
 con3[0,9]-: Y[0,9] + Z[0,8] - Z[0,9] = 10
 con3[0,10]-: Y[0,10] + Z[0,9] - Z[0,10] = 45
 con3[0,11]-: Y[0,11] + Z[0,10] - Z[0,11] = 99
 con3[1,0]-: Y[1,0] - Z[1,0] = 10
 con3[1,1]-: Y[1,1] + Z[1,0] - Z[1,1] = 10
 con3[1,2]-: Y[1,2] + Z[1,1] - Z[1,2] = 10
 con3[1,3]-: Y[1,3] + Z[1,2] - Z[1,3] = 10
 con3[1,4]-: Y[1,4] + Z[1,3] - Z[1,4] = 10
 con3[1,5]-: Y[1,5] + Z[1,4] - Z[1,5] = 10
 con3[1,6]-: Y[1,6] + Z[1,5] - Z[1,6] = 10
 con3[1,7]-: Y[1,7] + Z[1,6] - Z[1,7] = 10
 con3[1,8]-: Y[1,8] + Z[1,7] - Z[1,8] = 10
 con3[1,9]-: Y[1,9] + Z[1,8] - Z[1,9] = 10
 con3[1,10]-: Y[1,10] + Z[1,9] - Z[1,10] = 10
 con3[1,11]-: Y[1,11] + Z[1,10] - Z[1,11] = 10
 con3[2,0]-: Y[2,0] - Z[2,0] = 5
 con3[2,1]-: Y[2,1] + Z[2,0] - Z[2,1] = 20
 con3[2,2]-: Y[2,2] + Z[2,1] - Z[2,2] = 80
 con3[2,3]-: Y[2,3] + Z[2,2] - Z[2,3] = 25
 con3[2,4]-: Y[2,4] + Z[2,3] - Z[2,4] = 50
 con3[2,5]-: Y[2,5] + Z[2,4] - Z[2,5] = 125
 con3[2,6]-: Y[2,6] + Z[2,5] - Z[2,6] = 150
 con3[2,7]-: Y[2,7] + Z[2,6] - Z[2,7] = 80
 con3[2,8]-: Y[2,8] + Z[2,7] - Z[2,8] = 40
 con3[2,9]-: Y[2,9] + Z[2,8] - Z[2,9] = 35
 con3[2,10]-: Y[2,10] + Z[2,9] - Z[2,10] = 3
 con3[2,11]-: Y[2,11] + Z[2,10] - Z[2,11] = 100
 conA[0,0]-: Y[0,0] - V[0,00] - V[1,00] - V[2,00] - V[3,00] - V[4,00] = 0
 conA[0,1]-: Y[0,1] - V[0,01] - V[1,01] - V[2,01] - V[3,01] - V[4,01] = 0
 conA[0,2]-: Y[0,2] - V[0,02] - V[1,02] - V[2,02] - V[3,02] - V[4,02] = 0
 conA[0,3]-: Y[0,3] - V[0,03] - V[1,03] - V[2,03] - V[3,03] - V[4,03] = 0
 conA[0,4]-: Y[0,4] - V[0,04] - V[1,04] - V[2,04] - V[3,04] - V[4,04] = 0
 conA[0,5]-: Y[0,5] - V[0,05] - V[1,05] - V[2,05] - V[3,05] - V[4,05] = 0
 conA[0,6]-: Y[0,6] - V[0,06] - V[1,06] - V[2,06] - V[3,06] - V[4,06] = 0
 conA[0,7]-: Y[0,7] - V[0,07] - V[1,07] - V[2,07] - V[3,07] - V[4,07] = 0
 conA[0,8]-: Y[0,8] - V[0,08] - V[1,08] - V[2,08] - V[3,08] - V[4,08] = 0
 conA[0,9]-: Y[0,9] - V[0,09] - V[1,09] - V[2,09] - V[3,09] - V[4,09] = 0
 conA[0,10]-: Y[0,10] - V[0,010] - V[1,010] - V[2,010] - V[3,010]
   - V[4,010] = 0
 conA[0,11]-: Y[0,11] - V[0,011] - V[1,011] - V[2,011] - V[3,011]
   - V[4,011] = 0
 conA[1,0]-: Y[1,0] - V[0,10] - V[1,10] - V[2,10] - V[3,10] - V[4,10] = 0
 conA[1,1]-: Y[1,1] - V[0,11] - V[1,11] - V[2,11] - V[3,11] - V[4,11] = 0
 conA[1,2]-: Y[1,2] - V[0,12] - V[1,12] - V[2,12] - V[3,12] - V[4,12] = 0
 conA[1,3]-: Y[1,3] - V[0,13] - V[1,13] - V[2,13] - V[3,13] - V[4,13] = 0
 conA[1,4]-: Y[1,4] - V[0,14] - V[1,14] - V[2,14] - V[3,14] - V[4,14] = 0
 conA[1,5]-: Y[1,5] - V[0,15] - V[1,15] - V[2,15] - V[3,15] - V[4,15] = 0
 conA[1,6]-: Y[1,6] - V[0,16] - V[1,16] - V[2,16] - V[3,16] - V[4,16] = 0
 conA[1,7]-: Y[1,7] - V[0,17] - V[1,17] - V[2,17] - V[3,17] - V[4,17] = 0
 conA[1,8]-: Y[1,8] - V[0,18] - V[1,18] - V[2,18] - V[3,18] - V[4,18] = 0
 conA[1,9]-: Y[1,9] - V[0,19] - V[1,19] - V[2,19] - V[3,19] - V[4,19] = 0
 conA[1,10]-: Y[1,10] - V[0,110] - V[1,110] - V[2,110] - V[3,110]
   - V[4,110] = 0
 conA[1,11]-: Y[1,11] - V[0,111] - V[1,111] - V[2,111] - V[3,111]
   - V[4,111] = 0
 conA[2,0]-: Y[2,0] - V[0,20] - V[1,20] - V[2,20] - V[3,20] - V[4,20] = 0
 conA[2,1]-: Y[2,1] - V[0,21] - V[1,21] - V[2,21] - V[3,21] - V[4,21] = 0
 conA[2,2]-: Y[2,2] - V[0,22] - V[1,22] - V[2,22] - V[3,22] - V[4,22] = 0
 conA[2,3]-: Y[2,3] - V[0,23] - V[1,23] - V[2,23] - V[3,23] - V[4,23] = 0
 conA[2,4]-: Y[2,4] - V[0,24] - V[1,24] - V[2,24] - V[3,24] - V[4,24] = 0
 conA[2,5]-: Y[2,5] - V[0,25] - V[1,25] - V[2,25] - V[3,25] - V[4,25] = 0
 conA[2,6]-: Y[2,6] - V[0,26] - V[1,26] - V[2,26] - V[3,26] - V[4,26] = 0
 conA[2,7]-: Y[2,7] - V[0,27] - V[1,27] - V[2,27] - V[3,27] - V[4,27] = 0
 conA[2,8]-: Y[2,8] - V[0,28] - V[1,28] - V[2,28] - V[3,28] - V[4,28] = 0
 conA[2,9]-: Y[2,9] - V[0,29] - V[1,29] - V[2,29] - V[3,29] - V[4,29] = 0
 conA[2,10]-: Y[2,10] - V[0,210] - V[1,210] - V[2,210] - V[3,210]
   - V[4,210] = 0
 conA[2,11]-: Y[2,11] - V[0,211] - V[1,211] - V[2,211] - V[3,211]
   - V[4,211] = 0
 conB[0,0]-: - X[0,0] + V[0,00] + V[0,10] + V[0,20] = 0
 conB[0,1]-: - X[0,1] + V[0,01] + V[0,11] + V[0,21] = 0
 conB[0,2]-: - X[0,2] + V[0,02] + V[0,12] + V[0,22] = 0
 conB[0,3]-: - X[0,3] + V[0,03] + V[0,13] + V[0,23] = 0
 conB[0,4]-: - X[0,4] + V[0,04] + V[0,14] + V[0,24] = 0
 conB[0,5]-: - X[0,5] + V[0,05] + V[0,15] + V[0,25] = 0
 conB[0,6]-: - X[0,6] + V[0,06] + V[0,16] + V[0,26] = 0
 conB[0,7]-: - X[0,7] + V[0,07] + V[0,17] + V[0,27] = 0
 conB[0,8]-: - X[0,8] + V[0,08] + V[0,18] + V[0,28] = 0
 conB[0,9]-: - X[0,9] + V[0,09] + V[0,19] + V[0,29] = 0
 conB[0,10]-: - X[0,10] + V[0,010] + V[0,110] + V[0,210] = 0
 conB[0,11]-: - X[0,11] + V[0,011] + V[0,111] + V[0,211] = 0
 conB[1,0]-: - X[1,0] + V[1,00] + V[1,10] + V[1,20] = 0
 conB[1,1]-: - X[1,1] + V[1,01] + V[1,11] + V[1,21] = 0
 conB[1,2]-: - X[1,2] + V[1,02] + V[1,12] + V[1,22] = 0
 conB[1,3]-: - X[1,3] + V[1,03] + V[1,13] + V[1,23] = 0
 conB[1,4]-: - X[1,4] + V[1,04] + V[1,14] + V[1,24] = 0
 conB[1,5]-: - X[1,5] + V[1,05] + V[1,15] + V[1,25] = 0
 conB[1,6]-: - X[1,6] + V[1,06] + V[1,16] + V[1,26] = 0
 conB[1,7]-: - X[1,7] + V[1,07] + V[1,17] + V[1,27] = 0
 conB[1,8]-: - X[1,8] + V[1,08] + V[1,18] + V[1,28] = 0
 conB[1,9]-: - X[1,9] + V[1,09] + V[1,19] + V[1,29] = 0
 conB[1,10]-: - X[1,10] + V[1,010] + V[1,110] + V[1,210] = 0
 conB[1,11]-: - X[1,11] + V[1,011] + V[1,111] + V[1,211] = 0
 conB[2,0]-: - X[2,0] + V[2,00] + V[2,10] + V[2,20] = 0
 conB[2,1]-: - X[2,1] + V[2,01] + V[2,11] + V[2,21] = 0
 conB[2,2]-: - X[2,2] + V[2,02] + V[2,12] + V[2,22] = 0
 conB[2,3]-: - X[2,3] + V[2,03] + V[2,13] + V[2,23] = 0
 conB[2,4]-: - X[2,4] + V[2,04] + V[2,14] + V[2,24] = 0
 conB[2,5]-: - X[2,5] + V[2,05] + V[2,15] + V[2,25] = 0
 conB[2,6]-: - X[2,6] + V[2,06] + V[2,16] + V[2,26] = 0
 conB[2,7]-: - X[2,7] + V[2,07] + V[2,17] + V[2,27] = 0
 conB[2,8]-: - X[2,8] + V[2,08] + V[2,18] + V[2,28] = 0
 conB[2,9]-: - X[2,9] + V[2,09] + V[2,19] + V[2,29] = 0
 conB[2,10]-: - X[2,10] + V[2,010] + V[2,110] + V[2,210] = 0
 conB[2,11]-: - X[2,11] + V[2,011] + V[2,111] + V[2,211] = 0
 conB[3,0]-: - X[3,0] + V[3,00] + V[3,10] + V[3,20] = 0
 conB[3,1]-: - X[3,1] + V[3,01] + V[3,11] + V[3,21] = 0
 conB[3,2]-: - X[3,2] + V[3,02] + V[3,12] + V[3,22] = 0
 conB[3,3]-: - X[3,3] + V[3,03] + V[3,13] + V[3,23] = 0
 conB[3,4]-: - X[3,4] + V[3,04] + V[3,14] + V[3,24] = 0
 conB[3,5]-: - X[3,5] + V[3,05] + V[3,15] + V[3,25] = 0
 conB[3,6]-: - X[3,6] + V[3,06] + V[3,16] + V[3,26] = 0
 conB[3,7]-: - X[3,7] + V[3,07] + V[3,17] + V[3,27] = 0
 conB[3,8]-: - X[3,8] + V[3,08] + V[3,18] + V[3,28] = 0
 conB[3,9]-: - X[3,9] + V[3,09] + V[3,19] + V[3,29] = 0
 conB[3,10]-: - X[3,10] + V[3,010] + V[3,110] + V[3,210] = 0
 conB[3,11]-: - X[3,11] + V[3,011] + V[3,111] + V[3,211] = 0
 conB[4,0]-: - X[4,0] + V[4,00] + V[4,10] + V[4,20] = 0
 conB[4,1]-: - X[4,1] + V[4,01] + V[4,11] + V[4,21] = 0
 conB[4,2]-: - X[4,2] + V[4,02] + V[4,12] + V[4,22] = 0
 conB[4,3]-: - X[4,3] + V[4,03] + V[4,13] + V[4,23] = 0
 conB[4,4]-: - X[4,4] + V[4,04] + V[4,14] + V[4,24] = 0
 conB[4,5]-: - X[4,5] + V[4,05] + V[4,15] + V[4,25] = 0
 conB[4,6]-: - X[4,6] + V[4,06] + V[4,16] + V[4,26] = 0
 conB[4,7]-: - X[4,7] + V[4,07] + V[4,17] + V[4,27] = 0
 conB[4,8]-: - X[4,8] + V[4,08] + V[4,18] + V[4,28] = 0
 conB[4,9]-: - X[4,9] + V[4,09] + V[4,19] + V[4,29] = 0
 conB[4,10]-: - X[4,10] + V[4,010] + V[4,110] + V[4,210] = 0
 conB[4,11]-: - X[4,11] + V[4,011] + V[4,111] + V[4,211] = 0
 conC[0,0]-: - 0.18 Y[0,0] + 0.18 V[0,00] + 0.25 V[1,00] + 0.15 V[2,00]
   + 0.14 V[3,00] = 0
 conC[0,1]-: - 0.18 Y[0,1] + 0.18 V[0,01] + 0.25 V[1,01] + 0.15 V[2,01]
   + 0.14 V[3,01] = 0
 conC[0,2]-: - 0.18 Y[0,2] + 0.18 V[0,02] + 0.25 V[1,02] + 0.15 V[2,02]
   + 0.14 V[3,02] = 0
 conC[0,3]-: - 0.18 Y[0,3] + 0.18 V[0,03] + 0.25 V[1,03] + 0.15 V[2,03]
   + 0.14 V[3,03] = 0
 conC[0,4]-: - 0.18 Y[0,4] + 0.18 V[0,04] + 0.25 V[1,04] + 0.15 V[2,04]
   + 0.14 V[3,04] = 0
 conC[0,5]-: - 0.18 Y[0,5] + 0.18 V[0,05] + 0.25 V[1,05] + 0.15 V[2,05]
   + 0.14 V[3,05] = 0
 conC[0,6]-: - 0.18 Y[0,6] + 0.18 V[0,06] + 0.25 V[1,06] + 0.15 V[2,06]
   + 0.14 V[3,06] = 0
 conC[0,7]-: - 0.18 Y[0,7] + 0.18 V[0,07] + 0.25 V[1,07] + 0.15 V[2,07]
   + 0.14 V[3,07] = 0
 conC[0,8]-: - 0.18 Y[0,8] + 0.18 V[0,08] + 0.25 V[1,08] + 0.15 V[2,08]
   + 0.14 V[3,08] = 0
 conC[0,9]-: - 0.18 Y[0,9] + 0.18 V[0,09] + 0.25 V[1,09] + 0.15 V[2,09]
   + 0.14 V[3,09] = 0
 conC[0,10]-: - 0.18 Y[0,10] + 0.18 V[0,010] + 0.25 V[1,010]
   + 0.15 V[2,010] + 0.14 V[3,010] = 0
 conC[0,11]-: - 0.18 Y[0,11] + 0.18 V[0,011] + 0.25 V[1,011]
   + 0.15 V[2,011] + 0.14 V[3,011] = 0
 conC[1,0]-: - 0.18 Y[1,0] + 0.18 V[0,10] + 0.25 V[1,10] + 0.15 V[2,10]
   + 0.14 V[3,10] = 0
 conC[1,1]-: - 0.18 Y[1,1] + 0.18 V[0,11] + 0.25 V[1,11] + 0.15 V[2,11]
   + 0.14 V[3,11] = 0
 conC[1,2]-: - 0.18 Y[1,2] + 0.18 V[0,12] + 0.25 V[1,12] + 0.15 V[2,12]
   + 0.14 V[3,12] = 0
 conC[1,3]-: - 0.18 Y[1,3] + 0.18 V[0,13] + 0.25 V[1,13] + 0.15 V[2,13]
   + 0.14 V[3,13] = 0
 conC[1,4]-: - 0.18 Y[1,4] + 0.18 V[0,14] + 0.25 V[1,14] + 0.15 V[2,14]
   + 0.14 V[3,14] = 0
 conC[1,5]-: - 0.18 Y[1,5] + 0.18 V[0,15] + 0.25 V[1,15] + 0.15 V[2,15]
   + 0.14 V[3,15] = 0
 conC[1,6]-: - 0.18 Y[1,6] + 0.18 V[0,16] + 0.25 V[1,16] + 0.15 V[2,16]
   + 0.14 V[3,16] = 0
 conC[1,7]-: - 0.18 Y[1,7] + 0.18 V[0,17] + 0.25 V[1,17] + 0.15 V[2,17]
   + 0.14 V[3,17] = 0
 conC[1,8]-: - 0.18 Y[1,8] + 0.18 V[0,18] + 0.25 V[1,18] + 0.15 V[2,18]
   + 0.14 V[3,18] = 0
 conC[1,9]-: - 0.18 Y[1,9] + 0.18 V[0,19] + 0.25 V[1,19] + 0.15 V[2,19]
   + 0.14 V[3,19] = 0
 conC[1,10]-: - 0.18 Y[1,10] + 0.18 V[0,110] + 0.25 V[1,110]
   + 0.15 V[2,110] + 0.14 V[3,110] = 0
 conC[1,11]-: - 0.18 Y[1,11] + 0.18 V[0,111] + 0.25 V[1,111]
   + 0.15 V[2,111] + 0.14 V[3,111] = 0
 conC[2,0]-: - 0.18 Y[2,0] + 0.18 V[0,20] + 0.25 V[1,20] + 0.15 V[2,20]
   + 0.14 V[3,20] = 0
 conC[2,1]-: - 0.18 Y[2,1] + 0.18 V[0,21] + 0.25 V[1,21] + 0.15 V[2,21]
   + 0.14 V[3,21] = 0
 conC[2,2]-: - 0.18 Y[2,2] + 0.18 V[0,22] + 0.25 V[1,22] + 0.15 V[2,22]
   + 0.14 V[3,22] = 0
 conC[2,3]-: - 0.18 Y[2,3] + 0.18 V[0,23] + 0.25 V[1,23] + 0.15 V[2,23]
   + 0.14 V[3,23] = 0
 conC[2,4]-: - 0.18 Y[2,4] + 0.18 V[0,24] + 0.25 V[1,24] + 0.15 V[2,24]
   + 0.14 V[3,24] = 0
 conC[2,5]-: - 0.18 Y[2,5] + 0.18 V[0,25] + 0.25 V[1,25] + 0.15 V[2,25]
   + 0.14 V[3,25] = 0
 conC[2,6]-: - 0.18 Y[2,6] + 0.18 V[0,26] + 0.25 V[1,26] + 0.15 V[2,26]
   + 0.14 V[3,26] = 0
 conC[2,7]-: - 0.18 Y[2,7] + 0.18 V[0,27] + 0.25 V[1,27] + 0.15 V[2,27]
   + 0.14 V[3,27] = 0
 conC[2,8]-: - 0.18 Y[2,8] + 0.18 V[0,28] + 0.25 V[1,28] + 0.15 V[2,28]
   + 0.14 V[3,28] = 0
 conC[2,9]-: - 0.18 Y[2,9] + 0.18 V[0,29] + 0.25 V[1,29] + 0.15 V[2,29]
   + 0.14 V[3,29] = 0
 conC[2,10]-: - 0.18 Y[2,10] + 0.18 V[0,210] + 0.25 V[1,210]
   + 0.15 V[2,210] + 0.14 V[3,210] = 0
 conC[2,11]-: - 0.18 Y[2,11] + 0.18 V[0,211] + 0.25 V[1,211]
   + 0.15 V[2,211] + 0.14 V[3,211] = 0
 conD[0,0]-: - 0.1 Y[0,0] + 0.15 V[1,00] + 0.1 V[2,00] + 0.16 V[3,00]
   + 0.1 V[4,00] = 0
 conD[0,1]-: - 0.1 Y[0,1] + 0.15 V[1,01] + 0.1 V[2,01] + 0.16 V[3,01]
   + 0.1 V[4,01] = 0
 conD[0,2]-: - 0.1 Y[0,2] + 0.15 V[1,02] + 0.1 V[2,02] + 0.16 V[3,02]
   + 0.1 V[4,02] = 0
 conD[0,3]-: - 0.1 Y[0,3] + 0.15 V[1,03] + 0.1 V[2,03] + 0.16 V[3,03]
   + 0.1 V[4,03] = 0
 conD[0,4]-: - 0.1 Y[0,4] + 0.15 V[1,04] + 0.1 V[2,04] + 0.16 V[3,04]
   + 0.1 V[4,04] = 0
 conD[0,5]-: - 0.1 Y[0,5] + 0.15 V[1,05] + 0.1 V[2,05] + 0.16 V[3,05]
   + 0.1 V[4,05] = 0
 conD[0,6]-: - 0.1 Y[0,6] + 0.15 V[1,06] + 0.1 V[2,06] + 0.16 V[3,06]
   + 0.1 V[4,06] = 0
 conD[0,7]-: - 0.1 Y[0,7] + 0.15 V[1,07] + 0.1 V[2,07] + 0.16 V[3,07]
   + 0.1 V[4,07] = 0
 conD[0,8]-: - 0.1 Y[0,8] + 0.15 V[1,08] + 0.1 V[2,08] + 0.16 V[3,08]
   + 0.1 V[4,08] = 0
 conD[0,9]-: - 0.1 Y[0,9] + 0.15 V[1,09] + 0.1 V[2,09] + 0.16 V[3,09]
   + 0.1 V[4,09] = 0
 conD[0,10]-: - 0.1 Y[0,10] + 0.15 V[1,010] + 0.1 V[2,010] + 0.16 V[3,010]
   + 0.1 V[4,010] = 0
 conD[0,11]-: - 0.1 Y[0,11] + 0.15 V[1,011] + 0.1 V[2,011] + 0.16 V[3,011]
   + 0.1 V[4,011] = 0
 conD[1,0]-: - 0.08 Y[1,0] + 0.15 V[1,10] + 0.1 V[2,10] + 0.16 V[3,10]
   + 0.1 V[4,10] = 0
 conD[1,1]-: - 0.08 Y[1,1] + 0.15 V[1,11] + 0.1 V[2,11] + 0.16 V[3,11]
   + 0.1 V[4,11] = 0
 conD[1,2]-: - 0.08 Y[1,2] + 0.15 V[1,12] + 0.1 V[2,12] + 0.16 V[3,12]
   + 0.1 V[4,12] = 0
 conD[1,3]-: - 0.08 Y[1,3] + 0.15 V[1,13] + 0.1 V[2,13] + 0.16 V[3,13]
   + 0.1 V[4,13] = 0
 conD[1,4]-: - 0.08 Y[1,4] + 0.15 V[1,14] + 0.1 V[2,14] + 0.16 V[3,14]
   + 0.1 V[4,14] = 0
 conD[1,5]-: - 0.08 Y[1,5] + 0.15 V[1,15] + 0.1 V[2,15] + 0.16 V[3,15]
   + 0.1 V[4,15] = 0
 conD[1,6]-: - 0.08 Y[1,6] + 0.15 V[1,16] + 0.1 V[2,16] + 0.16 V[3,16]
   + 0.1 V[4,16] = 0
 conD[1,7]-: - 0.08 Y[1,7] + 0.15 V[1,17] + 0.1 V[2,17] + 0.16 V[3,17]
   + 0.1 V[4,17] = 0
 conD[1,8]-: - 0.08 Y[1,8] + 0.15 V[1,18] + 0.1 V[2,18] + 0.16 V[3,18]
   + 0.1 V[4,18] = 0
 conD[1,9]-: - 0.08 Y[1,9] + 0.15 V[1,19] + 0.1 V[2,19] + 0.16 V[3,19]
   + 0.1 V[4,19] = 0
 conD[1,10]-: - 0.08 Y[1,10] + 0.15 V[1,110] + 0.1 V[2,110] + 0.16 V[3,110]
   + 0.1 V[4,110] = 0
 conD[1,11]-: - 0.08 Y[1,11] + 0.15 V[1,111] + 0.1 V[2,111] + 0.16 V[3,111]
   + 0.1 V[4,111] = 0
 conD[2,0]-: 0.15 V[1,20] + 0.1 V[2,20] + 0.16 V[3,20] + 0.1 V[4,20] = 0
 conD[2,1]-: 0.15 V[1,21] + 0.1 V[2,21] + 0.16 V[3,21] + 0.1 V[4,21] = 0
 conD[2,2]-: 0.15 V[1,22] + 0.1 V[2,22] + 0.16 V[3,22] + 0.1 V[4,22] = 0
 conD[2,3]-: 0.15 V[1,23] + 0.1 V[2,23] + 0.16 V[3,23] + 0.1 V[4,23] = 0
 conD[2,4]-: 0.15 V[1,24] + 0.1 V[2,24] + 0.16 V[3,24] + 0.1 V[4,24] = 0
 conD[2,5]-: 0.15 V[1,25] + 0.1 V[2,25] + 0.16 V[3,25] + 0.1 V[4,25] = 0
 conD[2,6]-: 0.15 V[1,26] + 0.1 V[2,26] + 0.16 V[3,26] + 0.1 V[4,26] = 0
 conD[2,7]-: 0.15 V[1,27] + 0.1 V[2,27] + 0.16 V[3,27] + 0.1 V[4,27] = 0
 conD[2,8]-: 0.15 V[1,28] + 0.1 V[2,28] + 0.16 V[3,28] + 0.1 V[4,28] = 0
 conD[2,9]-: 0.15 V[1,29] + 0.1 V[2,29] + 0.16 V[3,29] + 0.1 V[4,29] = 0
 conD[2,10]-: 0.15 V[1,210] + 0.1 V[2,210] + 0.16 V[3,210] + 0.1 V[4,210]
   = 0
 conD[2,11]-: 0.15 V[1,211] + 0.1 V[2,211] + 0.16 V[3,211] + 0.1 V[4,211]
   = 0
Bounds
End
